1611714
10 17 52694
17 23 79298
23 21 92634
21 15 19591
15 6 10550
6 2 7286
2 30 6204
30 28 11025
28 4 9482
4 18 7922
18 5 5422
5 13 6994
13 25 1644
25 9 14389
9 14 29026
14 26 12452
26 22 11584
22 19 8375
19 11 13721
11 16 17050
16 29 55904
29 20 137842
20 1 190821
1 24 54636
24 12 443848
12 8 61690
8 27 98591
27 3 4945
3 7 5029
7 10 141065
